NAME : R211.5355.tour
COMMENT : Cost = 0_5355
COMMENT : Found by LKH [Keld Helsgaun] Wed Sep 13 18:34:36 2017
TYPE : TOUR
DIMENSION : 53
TOUR_SECTION
1
28
19
9
46
47
48
37
50
12
20
49
8
32
31
21
33
11
2
51
53
29
13
4
34
10
36
35
30
25
26
5
27
52
41
22
40
24
23
42
3
43
16
44
15
45
39
17
18
6
38
14
7
-1
EOF
